\ Model Inv_Linear_Production
\ LP format - for model browsing. Use MPS format to capture full model detail.
Minimize
  C0 + C1 + C2 + C3 + C4 + C5 + C6 + C7
Subject To
 R0: 4 C0 + 2 C1 - 4 C4 - 2 C5 = 2
 R1: 4 C2 + 2 C3 - 4 C6 - 2 C7 = 4
Bounds
End
